NAME : ManP-5-1
COMMENT : Pilot. 5 postmen. Max route 2941.15=4999.955m
TYPE : TSP
DIMENSION : 6
VEHICLES : 5
SCALE : 1000
DISTANCE : 4999.955
EDGE_WEIGHT_TYPE : EXPLICIT
EDGE_WEIGHT_FORMAT : UPPER_ROW
EDGE_WEIGHT_SECTION
365.684
520.943
680.414
672.530
351.138

878.874
1037.045
636.842
709.069

315.446
414.257
611.727

405.643
921.721

1017.556

DEPOT_SECTION
1
-1
EOF
